c --- [ banner ] -------------------------------------------------------------
c 
c CaDiCaL SAT Solver
c Copyright (c) 2016-2025
c A. Biere, M. Fleury, N. Froleyks, K. Fazekas, F. Pollitt, T. Faller
c JKU Linz, University of Freiburg, TU Wien
c 
c Version 3.0.0 7b99c07f0bcab5824a5a3ce62c7066554017f641
c Apple clang version 21.0.0 (clang-2100.0.123.102) -Wall -Wextra -O3 -DNDEBUG -DNCLOSEFROM
c Thu Apr 23 22:35:47 PDT 2026 Darwin dada-mun-26.local 25.4.0 arm64
c 
c --- [ limit ] --------------------------------------------------------------
c 
c setting time limit to 180 seconds real time (due to '-t 180')
c 
c --- [ parsing input ] ------------------------------------------------------
c 
c reading DIMACS file from '/private/tmp/p97-ordinal-reverseContinuationOrder.cnf'
c opening file to read '/private/tmp/p97-ordinal-reverseContinuationOrder.cnf'
c found 'p cnf 57653 311330' header
c parsed 311330 clauses in 0.06 seconds process time
c 
c --- [ options ] ------------------------------------------------------------
c 
c   --compact=false                (different from default 'true')
c   --congruence=false             (different from default 'true')
c   --decompose=false              (different from default 'true')
c   --deduplicate=false            (different from default 'true')
c   --eagersubsume=false           (different from default 'true')
c   --elim=false                   (different from default 'true')
c   --factor=false                 (different from default 'true')
c   --factorunbump=false           (different from default 'true')
c   --fastelim=false               (different from default 'true')
c   --inprobing=false              (different from default 'true')
c   --inprocessing=false           (different from default 'true')
c   --preprocesslight=false        (different from default 'true')
c   --probe=false                  (different from default 'true')
c   --subsume=false                (different from default 'true')
c   --sweep=false                  (different from default 'true')
c   --ternary=false                (different from default 'true')
c   --transred=false               (different from default 'true')
c   --vivify=false                 (different from default 'true')
c 
c --- [ solving ] ------------------------------------------------------------
c 
c time measured in process time since initialization
c 
c  seconds  reduction conflicts       size tier2        variables
c         MB    restarts   redundant    glue  trail          remaining
c          level     rate       size/glu tier1  irredundant
c 
c *  0.06  0  0 0   0  0    0    0 0.0 0 0 2 6  0% 310538 57013 99%
c )  0.06  0  0 0   0  0    0    0 0.0 0 0 2 6  0% 310538 57013 99%
c {  0.06  0  0 0   0  0    0    0 0.0 0 0 2 6  0% 310538 57013 99%
c i  0.06  0  7 0   0  3    5    3 2.3 2 1 2 6  1% 310538 56769 98%
c i  0.06  0 10 0   0  3   11    8 2.1 2 1 2 6  2% 310538 56643 98%
c i  0.06  0 58 0   0  7   54   48 1.8 2 1 2 6  5% 310538 56642 98%
c i  0.06  0 53 0   1  6   60   51 1.8 2 1 2 6  5% 310538 56611 98%
c i  0.06  0 59 0   3 11   70   59 1.9 3 1 2 6  5% 310538 56608 98%
c i  0.06  0 128 0   9 28   98   81 1.5 3 2 2 6  7% 310538 56607 98%
c i  0.07  0 128 0  11 34  110   91 1.5 4 2 2 6  7% 310538 56606 98%
c i  0.07  0 126 0  12 34  112   91 1.5 3 2 2 6  7% 310538 56605 98%
c i  0.07  0 133 0  19 43  133  110 1.5 3 2 2 6  7% 310538 56604 98%
c i  0.07  0 138 0  28 44  164  139 1.5 4 2 2 6  8% 310538 56596 98%
c i  0.07  0 139 0  31 45  175  148 1.5 4 3 2 6  8% 310538 56595 98%
c -  0.10  0 574 1  68 165  365  264 1.4 5 3 2 6 12% 305753 56595 98%
c i  0.15  0 395 1 126 112  609  478 1.6 7 4 2 6 15% 305753 56594 98%
c i  0.16  0 376 1 139 107  650  513 1.6 7 4 2 6 15% 305753 56592 98%
c }  0.20  0 278 1 196 76 1003  803 1.6 7 5 2 6 17% 305753 56592 98%
c [  0.20  0  0 1 196  0 1003  803 0.0 0 0 2 6  0% 305753 56592 98%
c O  0.20  0 28 1 196 29 1004  804 1.1 15 14 2 6  5% 305753 56592 98%
c 
c  seconds  reduction conflicts       size tier2        variables
c         MB    restarts   redundant    glue  trail          remaining
c          level     rate       size/glu tier1  irredundant
c 
c i  0.21  0 34 1 196  8 1012  811 1.3 9 7 2 6  6% 305753 56582 98%
c -  0.23  0 65 2 196  4 1074  726 1.4 6 5 2 6 10% 305678 56582 98%
c ]  0.34  0 94 2 196  2 1499 1119 2.7 22 8 2 6 27% 305678 56582 98%
c {  0.34  0 278 2 196 76 1499 1119 1.6 7 5 2 6 17% 305678 56582 98%
c i  0.37  0 242 2 229 65 1742 1321 1.7 8 5 2 6 17% 305678 56581 98%
c -  0.46  0 199 3 326 52 2290 1334 1.7 9 5 2 6 18% 305669 56581 98%
c O  0.54  0 174 3 393 41 3008 1908 1.7 9 5 2 6 19% 305669 56581 98%
c i  0.56  0 170 3 428 40 3188 2060 1.6 9 5 2 6 19% 305669 56580 98%
c i  0.56  0 169 3 432 40 3211 2078 1.6 9 5 2 6 19% 305669 56579 98%
c -  0.70  0 158 4 554 36 4067 2196 1.7 9 5 2 6 20% 305657 56579 98%
c }  0.90  0 144 4 730 30 5725 3588 1.7 9 6 2 3 21% 305657 56579 98%
c [  0.90  0 94 4 730  2 5725 3588 2.7 22 8 2 6 27% 305657 56579 98%
c i  0.90  0 94 4 730  3 5740 3600 2.7 21 8 2 6 26% 305657 56573 98%
c I  0.92  0 89 4 730  3 6010 3846 2.5 20 8 2 6 26% 305657 56573 98%
c -  0.97  0 95 5 731  3 6434 2661 2.3 20 9 4 9 24% 305624 56573 98%
c -  1.24  0 103 6 732  3 9413 3383 2.3 26 12 4 12 32% 305624 56573 98%
c B  1.29  0 104 6 733  3 10013 3933 2.3 25 11 4 12 33% 305624 56573 98%
c ]  1.53  0 102 6 735  3 12816 6507 2.1 28 14 4 12 30% 305624 56573 98%
c {  1.53  0 144 6 735 30 12816 6507 1.7 9 6 2 3 21% 305624 56573 98%
c -  1.58  0 144 7 755 29 13015 4043 1.7 9 6 2 3 22% 305624 56573 98%
c 
c  seconds   reductions conflicts       size  tier2        variables
c         MB     restarts    redundant     glue  trail          remaining
c           level     rate        size/glue tier1  irredundant
c 
c #  1.77  0 136 7 883 24 15014 5721 1.7 10 6 2 3 22% 305624 56573 98%
c i  1.96  0 132 7 1014 21 17055 7433 1.8 10 6 2 3 23% 305624 56571 98%
c -  1.99  0 131 8 1025 21 17251 5373 1.8 10 6 2 3 23% 305604 56569 98%
c B  2.37  0 127 8 1301 19 21018 8580 1.8 10 6 2 3 23% 305604 56569 98%
c -  2.51  0 123 9 1408 18 22127 7090 1.8 10 6 2 3 23% 305604 56569 98%
c }  2.74  0 122 9 1547 17 24311 8961 1.8 10 6 2 3 23% 305604 56569 98%
c [  2.74  0 102 9 1547  3 24311 8961 2.1 28 14 4 12 30% 305604 56569 98%
c -  3.06  0 94 10 1548  3 27649 8652 2.0 26 13 4 12 29% 305604 56569 98%
c W  3.22  0 93 10 1548  3 28021 9003 2.1 27 13 4 12 29% 305604 56569 98%
c -  3.88  0 83 11 1551  3 33822 9808 2.1 28 13 4 12 28% 305604 56569 98%
c ]  4.14  0 80 11 1553  3 35999 11906 2.1 29 14 4 12 28% 305604 56569 98%
c {  4.14  0 122 11 1553 17 35999 11906 1.8 10 6 2 3 23% 305604 56569 98%
c W  4.20  0 122 11 1556 17 36022 11928 1.8 10 6 2 3 23% 305604 56569 98%
c i  4.40  0 121 11 1672 16 37738 13443 1.8 10 6 2 3 23% 305604 56567 98%
c -  4.80  0 120 12 1926 16 40649 8556 1.8 10 6 1 2 24% 305591 56566 98%
c F  5.36  0 117 12 2322 15 45023 12468 1.8 10 6 1 2 24% 305591 56566 98%
c -  5.78  0 116 13 2609 15 48134 9727 1.8 11 6 1 2 24% 305591 56566 98%
c }  6.44  0 115 13 3142 15 52780 13955 1.8 11 6 1 2 24% 305591 56566 98%
c [  6.44  0 80 13 3142  3 52780 13955 2.1 29 14 4 12 28% 305591 56566 98%
c i  6.45  0 80 13 3142  3 52933 14096 2.1 29 14 4 12 28% 305591 56565 98%
c 
c  seconds  reductions   conflicts        size   tier2         variables
c         MB     restarts      redundant     glue    trail          remaining
c          level       rate         size/glue  tier1   irredundant
c 
c i  6.57  0 82 13 3143  3 54711 15782 2.1 28 14 4 12 28% 305591 56564 98%
c O  6.60  0 82 13 3143  3 55024 16076 2.1 28 14 4 12 28% 305591 56564 98%
c -  6.76  0 81 14 3144  3 56280 10958 2.1 28 13 4 12 28% 305576 56564 98%
c -  7.82  0 70 15 3145  2 65087 11133 2.1 31 15 4 12 25% 305576 56564 98%
c B  7.93  0 69 15 3145  2 66025 12032 2.1 31 15 4 12 25% 305576 56564 98%
c ]  8.56  0 70 15 3148  2 71152 17008 2.1 33 16 2 7 25% 305576 56564 98%
c {  8.56  0 115 15 3148 15 71152 17008 1.8 11 6 1 2 24% 305576 56564 98%
c -  9.01  0 114 16 3460 15 74559 11822 1.8 11 6 1 2 24% 305576 56564 98%
c B  9.44  0 113 16 3742 15 78026 14865 1.8 11 6 1 2 24% 305576 56564 98%
c - 10.32  0 110 17 4409 14 84702 13721 1.8 11 6 1 2 24% 305576 56564 98%
c i 10.87  0 109 17 4870 14 88941 17542 1.8 11 6 1 2 24% 305576 56563 98%
c W 11.43  0 108 17 5095 14 91027 19436 1.8 11 6 1 2 24% 305570 56563 98%
c - 12.04  0 107 18 5500 14 95507 15613 1.9 11 6 1 2 24% 305570 56563 98%
c } 12.32  0 107 18 5683 14 97603 17506 1.9 11 6 1 2 25% 305570 56563 98%
c [ 12.32  0 70 18 5683  2 97603 17506 2.1 33 16 2 7 25% 305570 56563 98%
c W 13.18  0 71 18 5687  2 105029 24669 2.1 34 16 2 7 26% 305570 56563 98%
c - 13.41  0 69 19 5687  2 106981 16729 2.1 35 17 2 7 26% 305570 56563 98%
c - 14.88  0 65 20 5694  2 119123 16872 2.1 34 16 2 7 26% 305570 56563 98%
c I 15.01  0 65 20 5694  2 120030 17758 2.1 34 17 2 7 26% 305570 56563 98%
c ] 15.84  0 62 20 5695  2 126836 24250 2.2 34 16 2 7 25% 305570 56563 98%
c 
c  seconds   reductions   conflicts         size  tier2        variables
c         MB      restarts       redundant     glue  trail          remaining
c           level       rate          size/glue tier1  irredundant
c 
c { 15.84  0 107 20 5695 14 126836 24250 1.9 11 6 1 2 25% 305570 56563 98%
c i 16.02  0 107 20 5826 14 127893 25226 1.9 11 6 1 2 25% 305570 56562 98%
c - 16.61  0 107 21 6181 14 131936 18394 1.9 11 6 1 2 25% 305563 56562 98%
c # 17.15  0 106 21 6584 14 136032 22115 1.9 11 6 1 2 25% 305563 56562 98%
c - 18.58  0 104 22 7693 14 145421 20729 1.9 12 6 1 2 25% 305563 56562 98%
c B 19.58  0 102 22 8449 13 153034 27705 1.9 12 6 1 2 25% 305563 56562 98%
c - 20.52  0 102 23 9076 13 159578 22918 1.9 12 6 1 2 25% 305563 56562 98%
c } 20.83  0 101 23 9337 13 161908 25051 1.9 12 6 1 2 25% 305563 56562 98%
c [ 20.83  0 62 23 9337  2 161908 25051 2.2 34 16 2 7 25% 305563 56562 98%
c B 22.04  0 62 23 9338  2 171035 33873 2.2 36 16 2 7 25% 305563 56562 98%
c - 22.51  0 62 24 9338  2 174410 23950 2.3 37 16 2 7 25% 305563 56562 98%
c - 24.74  0 59 25 9345  2 189914 23512 2.4 39 17 2 7 25% 305563 56562 98%
c W 25.14  0 59 25 9345  2 190036 23631 2.4 39 17 2 7 25% 305563 56562 98%
c ] 26.29  0 59 25 9349  2 198333 31658 2.4 40 16 2 7 26% 305563 56562 98%
c { 26.29  0 101 25 9349 13 198333 31658 1.9 12 6 1 2 25% 305563 56562 98%
c - 27.34  0 100 26 10098 13 206092 25036 1.9 12 6 1 2 25% 305563 56562 98%
c W 28.04  0 100 26 10494 13 210037 28683 1.9 12 6 1 2 25% 305563 56562 98%
c - 30.08  0 99 27 11849 13 222946 27941 1.9 12 6 1 2 25% 305563 56562 98%
c i 30.94  0 98 27 12352 13 229081 33570 1.9 12 6 1 2 25% 305563 56561 98%
c F 31.25  0 98 27 12550 13 231038 35395 1.9 12 6 1 2 25% 305563 56561 98%
c 
c  seconds  reductions    conflicts         size  tier2        variables
c         MB      restarts       redundant     glue  trail          remaining
c          level        rate          size/glue tier1  irredundant
c 
c - 32.79  0 98 28 13566 13 240476 30564 1.9 12 6 1 2 25% 305557 56561 98%
c } 33.39  0 98 28 13947 13 244321 34126 1.9 12 6 1 2 25% 305557 56561 98%
c [ 33.39  0 59 28 13947  2 244321 34126 2.4 40 16 2 7 26% 305557 56561 98%
c O 34.80  0 58 28 13951  2 253040 42595 2.4 39 17 2 7 26% 305557 56561 98%
c - 35.72  0 57 29 13951  2 258682 31761 2.3 39 17 2 7 26% 305557 56561 98%
c B 38.33  0 55 29 13961  2 276043 48613 2.3 39 17 2 7 26% 305557 56561 98%
c - 38.58  0 56 30 13962  2 277564 31779 2.3 39 17 2 7 26% 305557 56561 98%
c ] 40.44  0 54 30 13966  2 291819 45543 2.3 38 17 2 7 26% 305557 56561 98%
c { 40.44  0 98 30 13966 13 291819 45543 1.9 12 6 1 2 25% 305557 56561 98%
c - 41.25  0 98 31 14546 13 297124 32991 1.9 12 6 1 2 26% 305557 56561 98%
c B 41.72  0 98 31 14850 13 300044 35689 1.9 12 6 1 2 26% 305557 56561 98%
c i 43.08  0 97 31 15683 12 309102 44009 1.9 13 6 1 2 26% 305557 56557 98%
c - 44.44  0 97 32 16559 12 317361 35929 1.9 13 7 1 2 26% 305534 56557 98%
c W 46.13  0 96 32 17299 12 325050 43038 1.9 13 7 1 2 26% 305534 56557 98%
c - 48.33  0 96 33 18568 12 338275 39188 1.9 13 7 1 2 26% 305534 56557 98%
c # 50.32  0 95 33 19728 12 351051 51029 2.0 13 7 1 2 26% 305534 56557 98%
c } 50.44  0 95 33 19813 12 351650 51587 2.0 13 7 1 2 26% 305534 56557 98%
c [ 50.44  0 54 33 19813  2 351650 51587 2.3 38 17 2 7 26% 305534 56557 98%
c i 50.44  0 54 33 19813  2 351704 51635 2.3 38 17 2 7 26% 305534 56555 98%
c - 51.57  0 56 34 19814  2 359869 41133 2.2 38 17 2 7 26% 305521 56554 98%
c 
c  seconds  reductions    conflicts         size   tier2        variables
c         MB      restarts       redundant     glue   trail          remaining
c          level        rate          size/glue  tier1  irredundant
c 
c W 54.20  0 54 34 19815  2 378052 58824 2.2 39 18 2 7 25% 305521 56554 98%
c - 54.86  0 53 35 19815  2 382140 40840 2.1 39 18 2 7 24% 305521 56554 98%
c - 58.46  0 51 36 19816  2 405089 39621 2.2 40 18 2 7 24% 305521 56554 98%
c I 58.60  0 51 36 19817  2 406053 40567 2.2 40 19 2 7 24% 305521 56554 98%
c ] 59.98  0 52 36 19822  2 413063 47355 2.1 41 19 2 7 24% 305521 56554 98%
c { 59.98  0 95 36 19822 12 413063 47355 2.0 13 7 1 2 26% 305521 56554 98%
c i 60.52  0 95 36 20132 12 416326 50366 2.0 13 7 1 2 26% 305521 56552 98%
c - 62.43  0 94 37 21190 12 428717 42043 2.0 13 7 1 2 26% 305508 56551 98%
c B 63.36  0 94 37 21640 12 435054 47781 2.0 13 7 1 2 26% 305508 56551 98%
c - 66.25  0 94 38 23294 11 453030 45874 2.0 13 7 1 2 26% 305508 56551 98%
c W 68.75  0 94 38 24536 11 465055 56964 2.0 13 7 1 2 26% 305508 56551 98%
c - 71.08  0 94 39 25956 12 478016 49233 2.0 13 7 1 2 27% 305508 56551 98%
c } 72.51  0 94 39 26810 11 487278 57760 2.0 13 7 1 2 27% 305508 56551 98%
c [ 72.51  0 52 39 26810  2 487278 57760 2.1 41 19 2 7 24% 305508 56551 98%
c B 73.47  0 54 39 26814  2 496056 66293 2.1 40 19 2 7 24% 305508 56551 98%
c - 74.58  0 53 40 26817  2 503683 51200 2.1 40 19 2 7 24% 305508 56551 98%
c W 78.96  0 51 40 26828  2 528057 74970 2.1 40 19 2 7 24% 305508 56551 98%
c - 79.20  0 51 41 26829  2 530030 50942 2.1 40 19 2 7 24% 305508 56551 98%
c - 83.13  0 50 42 26834  2 557058 50690 2.1 40 19 2 7 23% 305508 56551 98%
c O 83.68  0 49 42 26834  2 561059 54574 2.1 40 19 2 7 23% 305508 56551 98%
c 
c  seconds  reductions    conflicts         size   tier2        variables
c         MB      restarts       redundant     glue   trail          remaining
c          level        rate          size/glue  tier1  irredundant
c 
c ] 85.20  0 48 42 26841  2 571927 65111 2.1 40 19 2 7 24% 305508 56551 98%
c { 85.20  0 94 42 26841 11 571927 65111 2.0 13 7 1 2 27% 305508 56551 98%
c - 87.40  0 92 43 27990 11 584767 52767 2.0 14 7 1 2 26% 305508 56551 98%
c F 89.24  0 92 43 28894 11 595060 62359 2.0 14 7 1 2 26% 305508 56551 98%
c - 92.85  0 92 44 30821 11 613157 56483 2.0 14 7 1 2 26% 305508 56551 98%
c B 95.90  0 91 44 32211 11 630061 72159 2.0 14 7 1 2 27% 305508 56551 98%
c - 98.29  0 91 45 33263 11 642228 60392 2.0 14 7 1 2 27% 305508 56551 98%
c } 102.32  0 91 45 35209 11 663395 80012 2.0 14 7 1 2 27% 305508 56551 98%
c [ 102.32  0 48 45 35209  2 663395 80012 2.1 40 19 2 7 24% 305508 56551 98%
c B 102.76  0 49 45 35209  2 666062 82626 2.1 40 19 2 7 23% 305508 56551 98%
c - 103.62  0 49 46 35213  2 671982 63131 2.1 39 19 2 7 23% 305508 56551 98%
c - 108.40  0 46 47 35226  2 702415 63442 2.1 39 18 2 7 23% 305508 56551 98%
c W 109.35  0 46 47 35227  2 703063 64075 2.1 39 18 2 7 23% 305508 56551 98%
c - 114.68  0 44 48 35233  2 733529 62524 2.1 39 19 2 8 24% 305508 56551 98%
c I 116.00  0 44 48 35234  2 741066 69947 2.2 40 19 2 8 24% 305508 56551 98%
c ] 119.64  0 46 48 35234  2 760627 89019 2.3 42 18 2 8 24% 305508 56551 98%
c { 119.64  0 91 48 35234 11 760627 89019 2.0 14 7 1 2 27% 305508 56551 98%
c - 120.72  0 91 49 35680 11 765332 63832 2.0 14 7 1 2 27% 305508 56551 98%
c W 123.72  0 90 49 37021 11 780068 77516 2.0 14 7 1 2 27% 305508 56551 98%
c - 127.37  0 90 50 38725 11 797809 67916 2.0 14 7 1 2 27% 305508 56551 98%
c 
c  seconds   reductions    conflicts         size  tier2        variables
c          MB      restarts       redundant     glue  trail          remaining
c           level        rate          size/glue tier1  irredundant
c 
c # 131.77  0 90 50 40607 10 820070 88757 2.0 14 7 1 2 27% 305508 56551 98%
c - 134.14  0 89 51 41726 10 830975 72065 2.0 14 7 1 2 27% 305508 56551 98%
c B 140.15  0 88 51 44311 10 861071 100180 2.0 15 7 1 2 27% 305508 56551 98%
c i 140.60  0 87 51 44530 10 863373 102355 2.0 15 7 1 2 27% 305508 56547 98%
c - 140.95  0 88 52 44644 10 864820 75592 2.0 15 7 1 2 27% 305485 56547 98%
c } 141.33  0 87 52 44810 10 867101 77736 2.0 15 7 1 2 27% 305485 56547 98%
c [ 141.33  0 46 52 44810  2 867101 77736 2.3 42 18 2 8 24% 305485 56547 98%
c - 146.15  0 52 53 44811  2 899344 76758 2.4 43 18 2 8 24% 305485 56547 98%
c B 146.62  0 52 53 44811  2 903073 80394 2.4 43 18 2 8 24% 305485 56547 98%
c - 151.21  0 51 54 44811  2 934550 74779 2.3 45 20 2 8 24% 305485 56547 98%
c W 153.69  0 51 54 44812  2 946074 86048 2.3 46 20 2 8 24% 305485 56547 98%
c - 157.92  0 49 55 44826  2 970440 74403 2.2 45 20 2 8 24% 305485 56547 98%
c ] 160.72  0 48 55 44833  2 987607 91155 2.2 44 20 2 8 24% 305485 56547 98%
c { 160.72  0 87 55 44833 10 987607 91155 2.0 15 7 1 2 27% 305485 56547 98%
c W 161.46  0 88 55 45058 10 990076 93454 2.0 15 7 1 2 27% 305485 56547 98%
c - 164.62  0 88 56 46439 10 1007010 77134 2.0 15 7 1 2 27% 305485 56547 98%
c i 167.20  0 89 56 47688 10 1021639 90764 2.0 15 7 1 2 27% 305485 56546 98%
c F 169.81  0 89 56 48763 10 1035078 103304 2.0 15 7 1 2 27% 305485 56546 98%
c - 171.78  0 89 57 49698 10 1044263 81677 2.0 15 7 1 2 27% 305479 56546 98%
c B 178.98  0 89 57 52542 10 1081079 116144 2.1 15 7 1 2 28% 305479 56546 98%
c 
c  seconds   reductions     conflicts         size  tier2        variables
c          MB      restarts        redundant     glue  trail          remaining
c           level        rate           size/glue tier1  irredundant
c 
c - 179.29  0 89 58 52676 10 1082200 85916 2.1 15 7 1 2 28% 305479 56546 98%
c } 179.89  0 89 58 52921 10 1085631 89130 2.1 15 7 1 2 28% 305479 56546 98%
c ? 179.89  0 89 58 52921 10 1085631 89130 2.1 15 7 1 2 28% 305479 56546 98%
c 
c --- [ result ] -------------------------------------------------------------
c 
c writing result to '/private/tmp/p97-ordinal-reverseContinuationOrder.sol'
c 
c --- [ run-time profiling ] -------------------------------------------------
c 
c process time taken by individual solving procedures
c (percentage relative to process time for solving)
c 
c       179.83  100.00% search
c        98.43   54.73% unstable
c        76.41   42.49% stable
c         4.99    2.78% walk
c         0.06    0.03% parse
c         0.00    0.00% lucky
c         0.00    0.00% simplify
c   =================================
c       179.83   99.97% solve
c 
c last line shows process time for solving
c (percentage relative to total process time)
c 
c --- [ statistics ] ---------------------------------------------------------
c 
c chronological:            478964        44.12 %  of conflicts
c conflicts:               1085631      6037.03    per second
c decisions:               7135664     39680.34    per second
c fixed:                      1107         1.92 %  of all variables
c learned:                 1028081        94.70 %  per conflict
c learned_lits:           36832120       100.00 %  learned literals
c minimized:                     0         0.00 %  learned literals
c shrunken:                4533644        12.31 %  learned literals
c minishrunken:            4380901        11.89 %  learned literals
c otfs:                      18228         1.68 %  of conflict
c propagations:         2188671399        12.17 M  per second
c reduced:                  938579        86.45 %  per conflict
c rephased:                     46     23600.67    interval
c restarts:                  52921        20.51    interval
c stabilizing:                  11        47.17 %  of conflicts
c subsumed:                    532         0.04 %  of all clauses
c strengthened:              17962         1.34 %  of all clauses
c ticks:               11043497398         5.05    propagation
c walked:                       14     77545.07    interval
c 
c seconds are measured in process time for solving
c 
c --- [ glue usage ] ---------------------------------------------------------
c 
c focused glue 1 used 1104126 clauses 64.42% accumulated 64.42% tier1
c focused glue 2 used 275954 clauses 16.10% accumulated 80.52% tier2
c 
c stable glue 2 used 504822 clauses 11.79% accumulated 55.04% tier1
c stable glue 3 used 227893 clauses 5.326% accumulated 60.37%
c stable glue 4-6 used 584115 clauses 13.65% accumulated 74.02%
c stable glue 7 used 130243 clauses 3.044% accumulated 77.06%
c stable glue 8 used 101652 clauses 2.375% accumulated 79.44% tier2
c 
c 
c --- [ resources ] ----------------------------------------------------------
c 
c total process time since initialization:       179.89    seconds
c total real time since initialization:          180.01    seconds
c maximum resident set size of process:       335408.00    MB
c 
c --- [ shutting down ] ------------------------------------------------------
c 
c exit 0
